(set-info :status unknown)
(declare-const symbol_90 (_ BitVec 32))
(declare-const symbol_71 (_ BitVec 32))
(declare-const symbol_55 (_ BitVec 32))
(declare-const symbol_32 (_ BitVec 32))
(declare-const symbol_68 (_ BitVec 32))
(declare-const symbol_35 (_ BitVec 32))
(declare-const symbol_25 (_ BitVec 32))
(declare-const symbol_78 (_ BitVec 32))
(declare-const symbol_112 (_ BitVec 32))
(declare-const symbol_27 (_ BitVec 32))
(declare-const symbol_73 (_ BitVec 32))
(declare-const symbol_42 (_ BitVec 32))
(declare-const symbol_118 (_ BitVec 32))
(declare-const symbol_110 (_ BitVec 32))
(declare-const symbol_91 (_ BitVec 32))
(declare-const symbol_109 (_ BitVec 32))
(declare-const symbol_58 (_ BitVec 32))
(declare-const symbol_17 (_ BitVec 32))
(declare-const symbol_115 (_ BitVec 32))
(declare-const symbol_33 (_ BitVec 32))
(declare-const symbol_54 (_ BitVec 32))
(declare-const symbol_45 (_ BitVec 32))
(declare-const symbol_113 (_ BitVec 32))
(declare-const symbol_106 (_ BitVec 32))
(declare-const symbol_49 (_ BitVec 32))
(declare-const symbol_63 (_ BitVec 32))
(declare-const symbol_116 (_ BitVec 32))
(declare-const symbol_102 (_ BitVec 32))
(declare-const symbol_85 (_ BitVec 32))
(declare-const symbol_77 (_ BitVec 32))
(declare-const symbol_60 (_ BitVec 32))
(declare-const symbol_10 (_ BitVec 32))
(declare-const symbol_4 (_ BitVec 32))
(declare-const symbol_84 (_ BitVec 32))
(declare-const symbol_75 (_ BitVec 32))
(declare-const symbol_26 (_ BitVec 32))
(declare-const symbol_28 (_ BitVec 32))
(declare-const symbol_29 (_ BitVec 32))
(declare-const symbol_23 (_ BitVec 32))
(declare-const symbol_15 (_ BitVec 32))
(declare-const symbol_0 (_ BitVec 32))
(declare-const symbol_104 (_ BitVec 32))
(declare-const symbol_82 (_ BitVec 32))
(declare-const symbol_9 (_ BitVec 32))
(declare-const symbol_92 (_ BitVec 32))
(declare-const symbol_44 (_ BitVec 32))
(declare-const symbol_103 (_ BitVec 32))
(declare-const symbol_96 (_ BitVec 32))
(declare-const symbol_65 (_ BitVec 32))
(declare-const symbol_36 (_ BitVec 32))
(declare-const symbol_64 (_ BitVec 32))
(declare-const symbol_47 (_ BitVec 32))
(declare-const symbol_108 (_ BitVec 32))
(declare-const symbol_52 (_ BitVec 32))
(declare-const symbol_16 (_ BitVec 32))
(declare-const symbol_61 (_ BitVec 32))
(declare-const symbol_34 (_ BitVec 32))
(declare-const symbol_11 (_ BitVec 32))
(declare-const symbol_3 (_ BitVec 32))
(declare-const symbol_123 (_ BitVec 32))
(declare-const symbol_95 (_ BitVec 32))
(declare-const symbol_14 (_ BitVec 32))
(declare-const symbol_117 (_ BitVec 32))
(declare-const symbol_46 (_ BitVec 32))
(declare-const symbol_38 (_ BitVec 32))
(declare-const symbol_24 (_ BitVec 32))
(declare-const symbol_1 (_ BitVec 32))
(declare-const symbol_105 (_ BitVec 32))
(declare-const symbol_100 (_ BitVec 32))
(declare-const symbol_57 (_ BitVec 32))
(declare-const symbol_6 (_ BitVec 32))
(declare-const symbol_74 (_ BitVec 32))
(declare-const symbol_22 (_ BitVec 32))
(declare-const symbol_94 (_ BitVec 32))
(declare-const symbol_72 (_ BitVec 32))
(declare-const symbol_67 (_ BitVec 32))
(declare-const symbol_41 (_ BitVec 32))
(declare-const symbol_83 (_ BitVec 32))
(declare-const symbol_79 (_ BitVec 32))
(declare-const symbol_62 (_ BitVec 32))
(declare-const symbol_97 (_ BitVec 32))
(declare-const symbol_122 (_ BitVec 32))
(declare-const symbol_80 (_ BitVec 32))
(declare-const symbol_50 (_ BitVec 32))
(declare-const symbol_18 (_ BitVec 32))
(declare-const symbol_66 (_ BitVec 32))
(declare-const symbol_40 (_ BitVec 32))
(declare-const symbol_30 (_ BitVec 32))
(declare-const symbol_111 (_ BitVec 32))
(declare-const symbol_37 (_ BitVec 32))
(declare-const symbol_21 (_ BitVec 32))
(declare-const symbol_19 (_ BitVec 32))
(declare-const symbol_120 (_ BitVec 32))
(declare-const symbol_88 (_ BitVec 32))
(declare-const symbol_43 (_ BitVec 32))
(declare-const symbol_99 (_ BitVec 32))
(declare-const symbol_93 (_ BitVec 32))
(declare-const symbol_2 (_ BitVec 32))
(declare-const symbol_107 (_ BitVec 32))
(declare-const symbol_101 (_ BitVec 32))
(declare-const symbol_86 (_ BitVec 32))
(declare-const symbol_51 (_ BitVec 32))
(declare-const symbol_98 (_ BitVec 32))
(declare-const symbol_89 (_ BitVec 32))
(declare-const symbol_124 (_ BitVec 32))
(declare-const symbol_31 (_ BitVec 32))
(declare-const symbol_20 (_ BitVec 32))
(declare-const symbol_121 (_ BitVec 32))
(declare-const symbol_13 (_ BitVec 32))
(declare-const symbol_7 (_ BitVec 32))
(declare-const symbol_53 (_ BitVec 32))
(declare-const symbol_59 (_ BitVec 32))
(declare-const symbol_56 (_ BitVec 32))
(declare-const symbol_39 (_ BitVec 32))
(declare-const symbol_69 (_ BitVec 32))
(declare-const symbol_12 (_ BitVec 32))
(declare-const symbol_8 (_ BitVec 32))
(declare-const symbol_119 (_ BitVec 32))
(declare-const symbol_114 (_ BitVec 32))
(declare-const symbol_81 (_ BitVec 32))
(declare-const symbol_76 (_ BitVec 32))
(declare-const symbol_70 (_ BitVec 32))
(declare-const symbol_5 (_ BitVec 32))
(declare-const symbol_87 (_ BitVec 32))
(declare-const symbol_48 (_ BitVec 32))
(assert (not (bvsgt symbol_124 symbol_1)))
(assert (not (bvsgt symbol_123 symbol_1)))
(assert (not (bvsgt symbol_122 symbol_1)))
(assert (not (bvsgt symbol_121 symbol_1)))
(assert (not (bvsgt symbol_120 symbol_1)))
(assert (not (bvsgt symbol_119 symbol_1)))
(assert (not (bvsgt symbol_118 symbol_1)))
(assert (not (bvsgt symbol_117 symbol_1)))
(assert (not (bvsgt symbol_116 symbol_1)))
(assert (not (bvsgt symbol_115 symbol_1)))
(assert (not (bvsgt symbol_114 symbol_1)))
(assert (not (bvsgt symbol_113 symbol_1)))
(assert (not (bvsgt symbol_112 symbol_1)))
(assert (not (bvsgt symbol_111 symbol_1)))
(assert (not (bvsgt symbol_110 symbol_1)))
(assert (not (bvsgt symbol_109 symbol_1)))
(assert (not (bvsgt symbol_108 symbol_1)))
(assert (not (bvsgt symbol_107 symbol_1)))
(assert (not (bvsgt symbol_106 symbol_1)))
(assert (not (bvsgt symbol_105 symbol_1)))
(assert (not (bvsgt symbol_104 symbol_1)))
(assert (not (bvsgt symbol_103 symbol_1)))
(assert (not (bvsgt symbol_102 symbol_1)))
(assert (not (bvsgt symbol_101 symbol_1)))
(assert (not (bvsgt symbol_100 symbol_1)))
(assert (not (bvsgt symbol_99 symbol_1)))
(assert (not (bvsgt symbol_98 symbol_1)))
(assert (not (bvsgt symbol_97 symbol_1)))
(assert (not (bvsgt symbol_96 symbol_1)))
(assert (not (bvsgt symbol_95 symbol_1)))
(assert (not (bvsgt symbol_94 symbol_1)))
(assert (not (bvsgt symbol_93 symbol_1)))
(assert (not (bvsgt symbol_92 symbol_1)))
(assert (not (bvsgt symbol_91 symbol_1)))
(assert (not (bvsgt symbol_90 symbol_1)))
(assert (not (bvsgt symbol_89 symbol_1)))
(assert (not (bvsgt symbol_88 symbol_1)))
(assert (not (bvsgt symbol_87 symbol_1)))
(assert (not (bvsgt symbol_86 symbol_1)))
(assert (not (bvsgt symbol_85 symbol_1)))
(assert (not (bvsgt symbol_84 symbol_1)))
(assert (not (bvsgt symbol_83 symbol_1)))
(assert (not (bvsgt symbol_82 symbol_1)))
(assert (not (bvsgt symbol_81 symbol_1)))
(assert (not (bvsgt symbol_80 symbol_1)))
(assert (not (bvsgt symbol_79 symbol_1)))
(assert (not (bvsgt symbol_78 symbol_1)))
(assert (not (bvsgt symbol_77 symbol_1)))
(assert (not (bvsgt symbol_76 symbol_1)))
(assert (not (bvsgt symbol_75 symbol_1)))
(assert (not (bvsgt symbol_74 symbol_1)))
(assert (not (bvsgt symbol_73 symbol_1)))
(assert (not (bvsgt symbol_72 symbol_1)))
(assert (not (bvsgt symbol_71 symbol_1)))
(assert (not (bvsgt symbol_70 symbol_1)))
(assert (not (bvsgt symbol_69 symbol_1)))
(assert (not (bvsgt symbol_68 symbol_1)))
(assert (not (bvsgt symbol_67 symbol_1)))
(assert (not (bvsgt symbol_66 symbol_1)))
(assert (not (bvsgt symbol_65 symbol_1)))
(assert (not (bvsgt symbol_64 symbol_1)))
(assert (not (bvsgt symbol_63 symbol_1)))
(assert (not (bvsgt symbol_62 symbol_1)))
(assert (not (bvsgt symbol_61 symbol_1)))
(assert (not (bvsgt symbol_60 symbol_1)))
(assert (not (bvsgt symbol_59 symbol_1)))
(assert (not (bvsgt symbol_58 symbol_1)))
(assert (not (bvsgt symbol_57 symbol_1)))
(assert (not (bvsgt symbol_56 symbol_1)))
(assert (not (bvsgt symbol_55 symbol_1)))
(assert (not (bvsgt symbol_54 symbol_1)))
(assert (not (bvsgt symbol_53 symbol_1)))
(assert (not (bvsgt symbol_52 symbol_1)))
(assert (not (bvsgt symbol_51 symbol_1)))
(assert (not (bvsgt symbol_50 symbol_1)))
(assert (not (bvsgt symbol_49 symbol_1)))
(assert (not (bvsgt symbol_48 symbol_1)))
(assert (not (bvsgt symbol_47 symbol_1)))
(assert (not (bvsgt symbol_46 symbol_1)))
(assert (not (bvsgt symbol_45 symbol_1)))
(assert (not (bvsgt symbol_44 symbol_1)))
(assert (not (bvsgt symbol_43 symbol_1)))
(assert (not (bvsgt symbol_42 symbol_1)))
(assert (not (bvsgt symbol_41 symbol_1)))
(assert (not (bvsgt symbol_40 symbol_1)))
(assert (not (bvsgt symbol_39 symbol_1)))
(assert (not (bvsgt symbol_38 symbol_1)))
(assert (not (bvsgt symbol_37 symbol_1)))
(assert (not (bvsgt symbol_36 symbol_1)))
(assert (not (bvsgt symbol_35 symbol_1)))
(assert (not (bvsgt symbol_34 symbol_1)))
(assert (not (bvsgt symbol_33 symbol_1)))
(assert (not (bvsgt symbol_32 symbol_1)))
(assert (not (bvsgt symbol_31 symbol_1)))
(assert (not (bvsgt symbol_30 symbol_1)))
(assert (not (bvsgt symbol_29 symbol_1)))
(assert (not (bvsgt symbol_28 symbol_1)))
(assert (not (bvsgt symbol_27 symbol_1)))
(assert (not (bvsgt symbol_26 symbol_1)))
(assert (not (bvsgt symbol_25 symbol_1)))
(assert (not (bvsgt symbol_24 symbol_1)))
(assert (not (bvsgt symbol_23 symbol_1)))
(assert (not (bvsgt symbol_22 symbol_1)))
(assert (not (bvsgt symbol_21 symbol_1)))
(assert (not (bvsgt symbol_20 symbol_1)))
(assert (not (bvsgt symbol_19 symbol_1)))
(assert (not (bvsgt symbol_18 symbol_1)))
(assert (not (bvsgt symbol_17 symbol_1)))
(assert (not (bvsgt symbol_16 symbol_1)))
(assert (not (bvsgt symbol_15 symbol_1)))
(assert (not (bvsgt symbol_14 symbol_1)))
(assert (not (bvsgt symbol_13 symbol_1)))
(assert (not (bvsgt symbol_12 symbol_1)))
(assert (not (bvsgt symbol_11 symbol_1)))
(assert (not (bvsgt symbol_10 symbol_1)))
(assert (not (bvsgt symbol_9 symbol_1)))
(assert (not (bvsgt symbol_8 symbol_1)))
(assert (not (bvsgt symbol_7 symbol_1)))
(assert (not (bvsgt symbol_6 symbol_1)))
(assert (not (bvsgt symbol_5 symbol_1)))
(assert (not (bvsgt symbol_4 symbol_1)))
(assert (not (bvsgt symbol_3 symbol_1)))
(assert (not (bvsgt symbol_2 symbol_1)))
(assert (not (bvsgt symbol_0 symbol_1)))
(check-sat)